(set-option :produce-models true); benchmark generated from python API
(set-info :status unknown)
(declare-fun l_0_0_2 () Real)
(declare-fun l_0_0_1 () Real)
(declare-fun l_0_1_3 () Real)
(declare-fun l_0_1_2 () Real)
(declare-fun l_0_1_1 () Real)
(declare-fun l_0_2_4 () Real)
(declare-fun l_0_2_3 () Real)
(declare-fun l_0_2_2 () Real)
(declare-fun l_0_2_1 () Real)
(declare-fun l_0_3_1 () Real)
(declare-fun l_0_3_5 () Real)
(declare-fun l_0_3_4 () Real)
(declare-fun l_0_3_3 () Real)
(declare-fun l_0_3_2 () Real)
(declare-fun l_0_4_1 () Real)
(declare-fun l_0_4_6 () Real)
(declare-fun l_0_4_5 () Real)
(declare-fun l_0_4_4 () Real)
(declare-fun l_0_4_3 () Real)
(declare-fun l_0_4_2 () Real)
(declare-fun l_0_5_1 () Real)
(declare-fun l_0_5_7 () Real)
(declare-fun l_0_5_6 () Real)
(declare-fun l_0_5_5 () Real)
(declare-fun l_0_5_4 () Real)
(declare-fun l_0_5_3 () Real)
(declare-fun l_0_5_2 () Real)
(declare-fun l_0_6_8 () Real)
(declare-fun l_0_6_7 () Real)
(declare-fun l_0_6_6 () Real)
(declare-fun l_0_6_5 () Real)
(declare-fun l_0_6_1 () Real)
(declare-fun l_0_6_2 () Real)
(declare-fun l_0_6_3 () Real)
(declare-fun l_0_6_4 () Real)
(declare-fun l_0_7_9 () Real)
(declare-fun l_0_7_8 () Real)
(declare-fun l_0_7_7 () Real)
(declare-fun l_0_7_6 () Real)
(declare-fun l_0_7_5 () Real)
(declare-fun l_0_7_1 () Real)
(declare-fun l_0_7_2 () Real)
(declare-fun l_0_7_3 () Real)
(declare-fun l_0_7_4 () Real)
(declare-fun l_0_8_9 () Real)
(declare-fun l_0_8_8 () Real)
(declare-fun l_0_8_7 () Real)
(declare-fun l_0_8_10 () Real)
(declare-fun _a_0_ () Real)
(declare-fun l_0_8_6 () Real)
(declare-fun l_0_8_5 () Real)
(declare-fun l_0_8_1 () Real)
(declare-fun _a_1_ () Real)
(declare-fun l_0_8_2 () Real)
(declare-fun _a_2_ () Real)
(declare-fun l_0_8_3 () Real)
(declare-fun l_0_8_4 () Real)
(declare-fun l_0_9_6 () Real)
(declare-fun l_0_9_5 () Real)
(declare-fun l_0_9_3 () Real)
(declare-fun l_0_9_9 () Real)
(declare-fun l_0_9_8 () Real)
(declare-fun l_0_9_7 () Real)
(declare-fun l_0_9_11 () Real)
(declare-fun l_0_9_10 () Real)
(declare-fun l_0_9_1 () Real)
(declare-fun l_0_9_2 () Real)
(declare-fun l_0_9_4 () Real)
(declare-fun l_0_10_8 () Real)
(declare-fun l_0_10_6 () Real)
(declare-fun l_0_10_5 () Real)
(declare-fun l_0_10_4 () Real)
(declare-fun l_0_10_9 () Real)
(declare-fun l_0_10_7 () Real)
(declare-fun l_0_10_12 () Real)
(declare-fun l_0_10_11 () Real)
(declare-fun l_0_10_10 () Real)
(declare-fun l_0_10_1 () Real)
(declare-fun l_0_10_2 () Real)
(declare-fun l_0_10_3 () Real)
(declare-fun l_0_11_6 () Real)
(declare-fun l_0_11_5 () Real)
(declare-fun l_0_11_3 () Real)
(declare-fun l_0_11_9 () Real)
(declare-fun l_0_11_8 () Real)
(declare-fun l_0_11_7 () Real)
(declare-fun l_0_11_13 () Real)
(declare-fun l_0_11_12 () Real)
(declare-fun l_0_11_11 () Real)
(declare-fun l_0_11_10 () Real)
(declare-fun l_0_11_4 () Real)
(declare-fun l_0_11_1 () Real)
(declare-fun l_0_11_2 () Real)
(declare-fun l_0_12_6 () Real)
(declare-fun l_0_12_5 () Real)
(declare-fun l_0_12_3 () Real)
(declare-fun l_0_12_9 () Real)
(declare-fun l_0_12_8 () Real)
(declare-fun l_0_12_7 () Real)
(declare-fun l_0_12_14 () Real)
(declare-fun l_0_12_13 () Real)
(declare-fun l_0_12_12 () Real)
(declare-fun l_0_12_11 () Real)
(declare-fun l_0_12_10 () Real)
(declare-fun l_0_12_4 () Real)
(declare-fun l_0_12_1 () Real)
(declare-fun l_0_12_2 () Real)
(declare-fun l_0_13_9 () Real)
(declare-fun l_0_13_8 () Real)
(declare-fun l_0_13_7 () Real)
(declare-fun l_0_13_6 () Real)
(declare-fun l_0_13_5 () Real)
(declare-fun l_0_13_1 () Real)
(declare-fun l_0_13_2 () Real)
(declare-fun l_0_13_3 () Real)
(declare-fun l_0_13_4 () Real)
(declare-fun l_0_14_9 () Real)
(declare-fun l_0_14_8 () Real)
(declare-fun l_0_14_7 () Real)
(declare-fun l_0_14_10 () Real)
(declare-fun l_0_14_6 () Real)
(declare-fun l_0_14_5 () Real)
(declare-fun l_0_14_1 () Real)
(declare-fun l_0_14_2 () Real)
(declare-fun l_0_14_3 () Real)
(declare-fun l_0_14_4 () Real)
(declare-fun l_0_15_9 () Real)
(declare-fun l_0_15_8 () Real)
(declare-fun l_0_15_7 () Real)
(declare-fun l_0_15_11 () Real)
(declare-fun l_0_15_10 () Real)
(declare-fun l_0_15_6 () Real)
(declare-fun l_0_15_5 () Real)
(declare-fun l_0_15_1 () Real)
(declare-fun l_0_15_2 () Real)
(declare-fun l_0_15_3 () Real)
(declare-fun l_0_15_4 () Real)
(declare-fun l_0_16_9 () Real)
(declare-fun l_0_16_8 () Real)
(declare-fun l_0_16_7 () Real)
(declare-fun l_0_16_12 () Real)
(declare-fun l_0_16_11 () Real)
(declare-fun l_0_16_10 () Real)
(declare-fun _a_3_ () Real)
(declare-fun l_0_16_6 () Real)
(declare-fun l_0_16_5 () Real)
(declare-fun l_0_16_3 () Real)
(declare-fun _a_4_ () Real)
(declare-fun l_0_16_1 () Real)
(declare-fun _a_5_ () Real)
(declare-fun l_0_16_2 () Real)
(declare-fun _a_6_ () Real)
(declare-fun l_0_16_4 () Real)
(declare-fun _a_7_ () Real)
(declare-fun l_0_17_6 () Real)
(declare-fun l_0_17_5 () Real)
(declare-fun l_0_17_9 () Real)
(declare-fun l_0_17_8 () Real)
(declare-fun l_0_17_7 () Real)
(declare-fun l_0_17_13 () Real)
(declare-fun l_0_17_12 () Real)
(declare-fun l_0_17_11 () Real)
(declare-fun l_0_17_10 () Real)
(declare-fun l_0_17_3 () Real)
(declare-fun l_0_17_1 () Real)
(declare-fun l_0_17_2 () Real)
(declare-fun l_0_17_4 () Real)
(declare-fun l_0_18_9 () Real)
(declare-fun l_0_18_8 () Real)
(declare-fun l_0_18_7 () Real)
(declare-fun l_0_18_14 () Real)
(declare-fun l_0_18_13 () Real)
(declare-fun l_0_18_12 () Real)
(declare-fun l_0_18_11 () Real)
(declare-fun l_0_18_10 () Real)
(declare-fun l_0_18_6 () Real)
(declare-fun l_0_18_5 () Real)
(declare-fun l_0_18_3 () Real)
(declare-fun l_0_18_1 () Real)
(declare-fun l_0_18_2 () Real)
(declare-fun l_0_18_4 () Real)
(declare-fun l_0_19_6 () Real)
(declare-fun l_0_19_5 () Real)
(declare-fun l_0_19_1 () Real)
(declare-fun l_0_19_9 () Real)
(declare-fun l_0_19_8 () Real)
(declare-fun l_0_19_7 () Real)
(declare-fun l_0_19_2 () Real)
(declare-fun l_0_19_3 () Real)
(declare-fun l_0_19_4 () Real)
(declare-fun l_0_20_9 () Real)
(declare-fun l_0_20_8 () Real)
(declare-fun l_0_20_7 () Real)
(declare-fun l_0_20_10 () Real)
(declare-fun l_0_20_6 () Real)
(declare-fun l_0_20_5 () Real)
(declare-fun l_0_20_1 () Real)
(declare-fun l_0_20_2 () Real)
(declare-fun l_0_20_3 () Real)
(declare-fun l_0_20_4 () Real)
(declare-fun l_0_21_9 () Real)
(declare-fun l_0_21_8 () Real)
(declare-fun l_0_21_7 () Real)
(declare-fun l_0_21_11 () Real)
(declare-fun l_0_21_10 () Real)
(declare-fun l_0_21_6 () Real)
(declare-fun l_0_21_5 () Real)
(declare-fun l_0_21_1 () Real)
(declare-fun l_0_21_2 () Real)
(declare-fun l_0_21_3 () Real)
(declare-fun l_0_21_4 () Real)
(declare-fun l_0_22_9 () Real)
(declare-fun l_0_22_8 () Real)
(declare-fun l_0_22_7 () Real)
(declare-fun l_0_22_12 () Real)
(declare-fun l_0_22_11 () Real)
(declare-fun l_0_22_10 () Real)
(declare-fun _a_8_ () Real)
(declare-fun l_0_22_6 () Real)
(declare-fun l_0_22_5 () Real)
(declare-fun l_0_22_3 () Real)
(declare-fun _a_9_ () Real)
(declare-fun l_0_22_1 () Real)
(declare-fun _a_10_ () Real)
(declare-fun l_0_22_2 () Real)
(declare-fun _a_11_ () Real)
(declare-fun l_0_22_4 () Real)
(declare-fun _a_12_ () Real)
(declare-fun l_0_23_6 () Real)
(declare-fun l_0_23_5 () Real)
(declare-fun l_0_23_9 () Real)
(declare-fun l_0_23_8 () Real)
(declare-fun l_0_23_7 () Real)
(declare-fun l_0_23_13 () Real)
(declare-fun l_0_23_12 () Real)
(declare-fun l_0_23_11 () Real)
(declare-fun l_0_23_10 () Real)
(declare-fun l_0_23_3 () Real)
(declare-fun l_0_23_1 () Real)
(declare-fun l_0_23_2 () Real)
(declare-fun l_0_23_4 () Real)
(declare-fun l_0_24_9 () Real)
(declare-fun l_0_24_8 () Real)
(declare-fun l_0_24_7 () Real)
(declare-fun l_0_24_14 () Real)
(declare-fun l_0_24_13 () Real)
(declare-fun l_0_24_12 () Real)
(declare-fun l_0_24_11 () Real)
(declare-fun l_0_24_10 () Real)
(declare-fun l_0_24_6 () Real)
(declare-fun l_0_24_5 () Real)
(declare-fun l_0_24_3 () Real)
(declare-fun l_0_24_1 () Real)
(declare-fun l_0_24_2 () Real)
(declare-fun l_0_24_4 () Real)
(declare-fun l_0_25_6 () Real)
(declare-fun l_0_25_5 () Real)
(declare-fun l_0_25_1 () Real)
(declare-fun l_0_25_9 () Real)
(declare-fun l_0_25_8 () Real)
(declare-fun l_0_25_7 () Real)
(declare-fun l_0_25_2 () Real)
(declare-fun l_0_25_3 () Real)
(declare-fun l_0_25_4 () Real)
(declare-fun l_0_26_9 () Real)
(declare-fun l_0_26_8 () Real)
(declare-fun l_0_26_7 () Real)
(declare-fun l_0_26_10 () Real)
(declare-fun l_0_26_6 () Real)
(declare-fun l_0_26_5 () Real)
(declare-fun l_0_26_1 () Real)
(declare-fun l_0_26_2 () Real)
(declare-fun l_0_26_3 () Real)
(declare-fun l_0_26_4 () Real)
(declare-fun l_0_27_9 () Real)
(declare-fun l_0_27_8 () Real)
(declare-fun l_0_27_7 () Real)
(declare-fun l_0_27_11 () Real)
(declare-fun l_0_27_10 () Real)
(declare-fun l_0_27_6 () Real)
(declare-fun l_0_27_5 () Real)
(declare-fun l_0_27_1 () Real)
(declare-fun l_0_27_2 () Real)
(declare-fun l_0_27_3 () Real)
(declare-fun l_0_27_4 () Real)
(declare-fun l_0_28_9 () Real)
(declare-fun l_0_28_8 () Real)
(declare-fun l_0_28_7 () Real)
(declare-fun l_0_28_12 () Real)
(declare-fun l_0_28_11 () Real)
(declare-fun l_0_28_10 () Real)
(declare-fun _a_13_ () Real)
(declare-fun l_0_28_6 () Real)
(declare-fun l_0_28_5 () Real)
(declare-fun l_0_28_3 () Real)
(declare-fun _a_14_ () Real)
(declare-fun l_0_28_1 () Real)
(declare-fun _a_15_ () Real)
(declare-fun l_0_28_2 () Real)
(declare-fun _a_16_ () Real)
(declare-fun l_0_28_4 () Real)
(declare-fun _a_17_ () Real)
(declare-fun l_0_29_6 () Real)
(declare-fun l_0_29_5 () Real)
(declare-fun l_0_29_9 () Real)
(declare-fun l_0_29_8 () Real)
(declare-fun l_0_29_7 () Real)
(declare-fun l_0_29_13 () Real)
(declare-fun l_0_29_12 () Real)
(declare-fun l_0_29_11 () Real)
(declare-fun l_0_29_10 () Real)
(declare-fun l_0_29_3 () Real)
(declare-fun l_0_29_1 () Real)
(declare-fun l_0_29_2 () Real)
(declare-fun l_0_29_4 () Real)
(declare-fun l_0_30_9 () Real)
(declare-fun l_0_30_8 () Real)
(declare-fun l_0_30_7 () Real)
(declare-fun l_0_30_14 () Real)
(declare-fun l_0_30_13 () Real)
(declare-fun l_0_30_12 () Real)
(declare-fun l_0_30_11 () Real)
(declare-fun l_0_30_10 () Real)
(declare-fun l_0_30_6 () Real)
(declare-fun l_0_30_5 () Real)
(declare-fun l_0_30_3 () Real)
(declare-fun l_0_30_1 () Real)
(declare-fun l_0_30_2 () Real)
(declare-fun l_0_30_4 () Real)
(assert
 (= (- (* 1.0 l_0_0_1) l_0_0_2) 0.0))
(assert
 (= (- l_0_0_1) 0.0))
(assert
 (>= l_0_0_1 0.0))
(assert
 (>= l_0_0_2 0.0))
(assert
 (= (- (- (* 1.0 l_0_1_1) l_0_1_2) l_0_1_3) 0.0))
(assert
 (= (- l_0_1_1) 0.0))
(assert
 (>= l_0_1_1 0.0))
(assert
 (>= l_0_1_2 0.0))
(assert
 (>= l_0_1_3 0.0))
(assert
 (= (- (- (- (* 1.0 l_0_2_1) l_0_2_2) l_0_2_3) l_0_2_4) 0.0))
(assert
 (= (- l_0_2_1) 0.0))
(assert
 (>= l_0_2_1 0.0))
(assert
 (>= l_0_2_2 0.0))
(assert
 (>= l_0_2_3 0.0))
(assert
 (>= l_0_2_4 0.0))
(assert
 (= (- 1.0 l_0_3_1) 0.0))
(assert
 (let ((?x415 (- (- (- (- (* 1.0 l_0_3_1) l_0_3_2) l_0_3_3) l_0_3_4) l_0_3_5)))
 (= ?x415 0.0)))
(assert
 (>= l_0_3_1 0.0))
(assert
 (>= l_0_3_2 0.0))
(assert
 (>= l_0_3_3 0.0))
(assert
 (>= l_0_3_4 0.0))
(assert
 (>= l_0_3_5 0.0))
(assert
 (= (- l_0_4_1) 0.0))
(assert
 (let ((?x442 (- (- (- (- (* 1.0 l_0_4_1) l_0_4_2) l_0_4_3) l_0_4_4) l_0_4_5)))
 (= (- ?x442 l_0_4_6) 0.0)))
(assert
 (>= l_0_4_1 0.0))
(assert
 (>= l_0_4_2 0.0))
(assert
 (>= l_0_4_3 0.0))
(assert
 (>= l_0_4_4 0.0))
(assert
 (>= l_0_4_5 0.0))
(assert
 (>= l_0_4_6 0.0))
(assert
 (= (- l_0_5_1) 0.0))
(assert
 (let ((?x474 (- (- (- (- (* 1.0 l_0_5_1) l_0_5_2) l_0_5_3) l_0_5_4) l_0_5_5)))
 (= (- (- ?x474 l_0_5_6) l_0_5_7) 0.0)))
(assert
 (>= l_0_5_1 0.0))
(assert
 (>= l_0_5_2 0.0))
(assert
 (>= l_0_5_3 0.0))
(assert
 (>= l_0_5_4 0.0))
(assert
 (>= l_0_5_5 0.0))
(assert
 (>= l_0_5_6 0.0))
(assert
 (>= l_0_5_7 0.0))
(assert
 (= (+ (- (* 1.0 l_0_6_7) l_0_6_8) 1.0) 0.0))
(assert
 (= (- (+ (- l_0_6_1) l_0_6_5) l_0_6_6) 0.0))
(assert
 (= (- (+ (- l_0_6_2) l_0_6_5) l_0_6_6) 0.0))
(assert
 (= (- (+ (- l_0_6_3) l_0_6_5) l_0_6_6) 0.0))
(assert
 (= (- (+ (- l_0_6_4) l_0_6_5) l_0_6_6) 0.0))
(assert
 (= (+ (- l_0_6_5) l_0_6_6) 0.0))
(assert
 (>= l_0_6_1 0.0))
(assert
 (>= l_0_6_2 0.0))
(assert
 (>= l_0_6_3 0.0))
(assert
 (>= l_0_6_4 0.0))
(assert
 (>= l_0_6_5 0.0))
(assert
 (>= l_0_6_6 0.0))
(assert
 (>= l_0_6_7 0.0))
(assert
 (>= l_0_6_8 0.0))
(assert
 (= (- (+ (* (- 1.0) l_0_7_7) (* 1.0 l_0_7_8)) l_0_7_9) 0.0))
(assert
 (= (- (+ (- l_0_7_1) l_0_7_5) l_0_7_6) 0.0))
(assert
 (= (- (+ (- l_0_7_2) l_0_7_5) l_0_7_6) 0.0))
(assert
 (= (- (+ (- l_0_7_3) l_0_7_5) l_0_7_6) 0.0))
(assert
 (= (- (- (+ (- l_0_7_4) l_0_7_5) l_0_7_6) l_0_7_8) 0.0))
(assert
 (= (+ (- l_0_7_5) l_0_7_6) 0.0))
(assert
 (>= l_0_7_1 0.0))
(assert
 (>= l_0_7_2 0.0))
(assert
 (>= l_0_7_3 0.0))
(assert
 (>= l_0_7_4 0.0))
(assert
 (>= l_0_7_5 0.0))
(assert
 (>= l_0_7_6 0.0))
(assert
 (>= l_0_7_7 0.0))
(assert
 (>= l_0_7_8 0.0))
(assert
 (>= l_0_7_9 0.0))
(assert
 (let ((?x640 (+ (- (- _a_0_ l_0_8_10) (* 1.0 l_0_8_7)) (* 1.0 l_0_8_8))))
 (= (- ?x640 l_0_8_9) 0.0)))
(assert
 (= (- (+ (- _a_1_ l_0_8_1) l_0_8_5) l_0_8_6) 0.0))
(assert
 (= (- (+ (- _a_2_ l_0_8_2) l_0_8_5) l_0_8_6) 0.0))
(assert
 (= (- (+ (- l_0_8_3) l_0_8_5) l_0_8_6) 0.0))
(assert
 (= (- (- (+ (- l_0_8_4) l_0_8_5) l_0_8_6) l_0_8_8) 0.0))
(assert
 (= (+ (- l_0_8_5) l_0_8_6) 0.0))
(assert
 (>= l_0_8_1 0.0))
(assert
 (>= l_0_8_2 0.0))
(assert
 (>= l_0_8_3 0.0))
(assert
 (>= l_0_8_4 0.0))
(assert
 (>= l_0_8_5 0.0))
(assert
 (>= l_0_8_6 0.0))
(assert
 (>= l_0_8_7 0.0))
(assert
 (>= l_0_8_8 0.0))
(assert
 (>= l_0_8_9 0.0))
(assert
 (>= l_0_8_10 0.0))
(assert
 (= (+ (- (+ (- l_0_9_3) l_0_9_5) l_0_9_6) 1.0) 0.0))
(assert
 (let ((?x732 (+ (- (- (- l_0_9_10) l_0_9_11) (* 1.0 l_0_9_7)) (* 1.0 l_0_9_8))))
 (= (+ (- ?x732 l_0_9_9) 1.0) 0.0)))
(assert
 (= (- (+ (- l_0_9_1) l_0_9_5) l_0_9_6) 0.0))
(assert
 (= (- (+ (- l_0_9_2) l_0_9_5) l_0_9_6) 0.0))
(assert
 (= (- (- (+ (- l_0_9_4) l_0_9_5) l_0_9_6) l_0_9_8) 0.0))
(assert
 (= (+ (- l_0_9_5) l_0_9_6) 0.0))
(assert
 (>= l_0_9_1 0.0))
(assert
 (>= l_0_9_2 0.0))
(assert
 (>= l_0_9_3 0.0))
(assert
 (>= l_0_9_4 0.0))
(assert
 (>= l_0_9_5 0.0))
(assert
 (>= l_0_9_6 0.0))
(assert
 (>= l_0_9_7 0.0))
(assert
 (>= l_0_9_8 0.0))
(assert
 (>= l_0_9_9 0.0))
(assert
 (>= l_0_9_10 0.0))
(assert
 (>= l_0_9_11 0.0))
(assert
 (= (+ (- (- (+ (- l_0_10_4) l_0_10_5) l_0_10_6) l_0_10_8) 1.0) 0.0))
(assert
 (let ((?x819 (- (- (- (- l_0_10_10) l_0_10_11) l_0_10_12) (* 1.0 l_0_10_7))))
 (= (- (- (+ ?x819 (* 1.0 l_0_10_8)) l_0_10_9) 1.0) 0.0)))
(assert
 (= (- (+ (- l_0_10_1) l_0_10_5) l_0_10_6) 0.0))
(assert
 (= (- (+ (- l_0_10_2) l_0_10_5) l_0_10_6) 0.0))
(assert
 (= (- (+ (- l_0_10_3) l_0_10_5) l_0_10_6) 0.0))
(assert
 (= (+ (- l_0_10_5) l_0_10_6) 0.0))
(assert
 (>= l_0_10_1 0.0))
(assert
 (>= l_0_10_2 0.0))
(assert
 (>= l_0_10_3 0.0))
(assert
 (>= l_0_10_4 0.0))
(assert
 (>= l_0_10_5 0.0))
(assert
 (>= l_0_10_6 0.0))
(assert
 (>= l_0_10_7 0.0))
(assert
 (>= l_0_10_8 0.0))
(assert
 (>= l_0_10_9 0.0))
(assert
 (>= l_0_10_10 0.0))
(assert
 (>= l_0_10_11 0.0))
(assert
 (>= l_0_10_12 0.0))
(assert
 (= (+ (+ (- l_0_11_5) l_0_11_6) 1.0) 0.0))
(assert
 (= (- (- (+ (- l_0_11_3) l_0_11_5) l_0_11_6) 1.0) 0.0))
(assert
 (let ((?x915 (- (- (- (- (- _a_0_) l_0_11_10) l_0_11_11) l_0_11_12) l_0_11_13)))
 (let ((?x920 (- (+ (- ?x915 (* 1.0 l_0_11_7)) (* 1.0 l_0_11_8)) l_0_11_9)))
 (= ?x920 0.0))))
(assert
 (= (- (- (- (+ (- l_0_11_4) l_0_11_5) l_0_11_6) l_0_11_8) 1.0) 0.0))
(assert
 (= (- (+ (- (- _a_1_) l_0_11_1) l_0_11_5) l_0_11_6) 0.0))
(assert
 (= (- (+ (- (- _a_2_) l_0_11_2) l_0_11_5) l_0_11_6) 0.0))
(assert
 (>= l_0_11_1 0.0))
(assert
 (>= l_0_11_2 0.0))
(assert
 (>= l_0_11_3 0.0))
(assert
 (>= l_0_11_4 0.0))
(assert
 (>= l_0_11_5 0.0))
(assert
 (>= l_0_11_6 0.0))
(assert
 (>= l_0_11_7 0.0))
(assert
 (>= l_0_11_8 0.0))
(assert
 (>= l_0_11_9 0.0))
(assert
 (>= l_0_11_10 0.0))
(assert
 (>= l_0_11_11 0.0))
(assert
 (>= l_0_11_12 0.0))
(assert
 (>= l_0_11_13 0.0))
(assert
 (= (+ (- (+ (- l_0_12_3) l_0_12_5) l_0_12_6) 1.0) 0.0))
(assert
 (let ((?x1016 (- (- (- (- (- _a_0_ l_0_12_10) l_0_12_11) l_0_12_12) l_0_12_13) l_0_12_14)))
 (let ((?x1021 (- (+ (- ?x1016 (* 1.0 l_0_12_7)) (* 1.0 l_0_12_8)) l_0_12_9)))
 (= ?x1021 0.0))))
(assert
 (= (+ (- (- (+ (- l_0_12_4) l_0_12_5) l_0_12_6) l_0_12_8) 1.0) 0.0))
(assert
 (= (- (+ (- _a_1_ l_0_12_1) l_0_12_5) l_0_12_6) 0.0))
(assert
 (= (- (+ (- _a_2_ l_0_12_2) l_0_12_5) l_0_12_6) 0.0))
(assert
 (= (- (+ (- l_0_12_5) l_0_12_6) 1.0) 0.0))
(assert
 (>= l_0_12_1 0.0))
(assert
 (>= l_0_12_2 0.0))
(assert
 (>= l_0_12_3 0.0))
(assert
 (>= l_0_12_4 0.0))
(assert
 (>= l_0_12_5 0.0))
(assert
 (>= l_0_12_6 0.0))
(assert
 (>= l_0_12_7 0.0))
(assert
 (>= l_0_12_8 0.0))
(assert
 (>= l_0_12_9 0.0))
(assert
 (>= l_0_12_10 0.0))
(assert
 (>= l_0_12_11 0.0))
(assert
 (>= l_0_12_12 0.0))
(assert
 (>= l_0_12_13 0.0))
(assert
 (>= l_0_12_14 0.0))
(assert
 (let ((?x1107 (+ (- (+ (* (- 1.0) l_0_13_7) (* 1.0 l_0_13_8)) l_0_13_9) 1.0)))
 (= ?x1107 0.0)))
(assert
 (= (- (+ (- l_0_13_1) l_0_13_5) l_0_13_6) 0.0))
(assert
 (= (- (+ (- l_0_13_2) l_0_13_5) l_0_13_6) 0.0))
(assert
 (= (- (+ (- l_0_13_3) l_0_13_5) l_0_13_6) 0.0))
(assert
 (= (- (- (+ (- l_0_13_4) l_0_13_5) l_0_13_6) l_0_13_8) 0.0))
(assert
 (= (+ (- l_0_13_5) l_0_13_6) 0.0))
(assert
 (>= l_0_13_1 0.0))
(assert
 (>= l_0_13_2 0.0))
(assert
 (>= l_0_13_3 0.0))
(assert
 (>= l_0_13_4 0.0))
(assert
 (>= l_0_13_5 0.0))
(assert
 (>= l_0_13_6 0.0))
(assert
 (>= l_0_13_7 0.0))
(assert
 (>= l_0_13_8 0.0))
(assert
 (>= l_0_13_9 0.0))
(assert
 (let ((?x1180 (- (+ (- (- l_0_14_10) (* 1.0 l_0_14_7)) (* 1.0 l_0_14_8)) l_0_14_9)))
 (= ?x1180 0.0)))
(assert
 (= (- (+ (- l_0_14_1) l_0_14_5) l_0_14_6) 0.0))
(assert
 (= (- (+ (- l_0_14_2) l_0_14_5) l_0_14_6) 0.0))
(assert
 (= (- (+ (- l_0_14_3) l_0_14_5) l_0_14_6) 0.0))
(assert
 (= (- (- (+ (- l_0_14_4) l_0_14_5) l_0_14_6) l_0_14_8) 0.0))
(assert
 (= (+ (- l_0_14_5) l_0_14_6) 0.0))
(assert
 (>= l_0_14_1 0.0))
(assert
 (>= l_0_14_2 0.0))
(assert
 (>= l_0_14_3 0.0))
(assert
 (>= l_0_14_4 0.0))
(assert
 (>= l_0_14_5 0.0))
(assert
 (>= l_0_14_6 0.0))
(assert
 (>= l_0_14_7 0.0))
(assert
 (>= l_0_14_8 0.0))
(assert
 (>= l_0_14_9 0.0))
(assert
 (>= l_0_14_10 0.0))
(assert
 (let ((?x1258 (+ (- (- (- l_0_15_10) l_0_15_11) (* 1.0 l_0_15_7)) (* 1.0 l_0_15_8))))
 (= (- ?x1258 l_0_15_9) 0.0)))
(assert
 (= (- (+ (- l_0_15_1) l_0_15_5) l_0_15_6) 0.0))
(assert
 (= (- (+ (- l_0_15_2) l_0_15_5) l_0_15_6) 0.0))
(assert
 (= (- (+ (- l_0_15_3) l_0_15_5) l_0_15_6) 0.0))
(assert
 (= (- (- (+ (- l_0_15_4) l_0_15_5) l_0_15_6) l_0_15_8) 0.0))
(assert
 (= (+ (- l_0_15_5) l_0_15_6) 0.0))
(assert
 (>= l_0_15_1 0.0))
(assert
 (>= l_0_15_2 0.0))
(assert
 (>= l_0_15_3 0.0))
(assert
 (>= l_0_15_4 0.0))
(assert
 (>= l_0_15_5 0.0))
(assert
 (>= l_0_15_6 0.0))
(assert
 (>= l_0_15_7 0.0))
(assert
 (>= l_0_15_8 0.0))
(assert
 (>= l_0_15_9 0.0))
(assert
 (>= l_0_15_10 0.0))
(assert
 (>= l_0_15_11 0.0))
(assert
 (let ((?x1339 (- (- (- (- _a_3_ l_0_16_10) l_0_16_11) l_0_16_12) (* 1.0 l_0_16_7))))
 (= (- (+ ?x1339 (* 1.0 l_0_16_8)) l_0_16_9) 0.0)))
(assert
 (= (- (+ (- _a_4_ l_0_16_3) l_0_16_5) l_0_16_6) 0.0))
(assert
 (= (- (+ (- _a_5_ l_0_16_1) l_0_16_5) l_0_16_6) 0.0))
(assert
 (= (- (+ (- _a_6_ l_0_16_2) l_0_16_5) l_0_16_6) 0.0))
(assert
 (= (- (- (+ (- _a_7_ l_0_16_4) l_0_16_5) l_0_16_6) l_0_16_8) 0.0))
(assert
 (= (+ (- l_0_16_5) l_0_16_6) 0.0))
(assert
 (>= l_0_16_1 0.0))
(assert
 (>= l_0_16_2 0.0))
(assert
 (>= l_0_16_3 0.0))
(assert
 (>= l_0_16_4 0.0))
(assert
 (>= l_0_16_5 0.0))
(assert
 (>= l_0_16_6 0.0))
(assert
 (>= l_0_16_7 0.0))
(assert
 (>= l_0_16_8 0.0))
(assert
 (>= l_0_16_9 0.0))
(assert
 (>= l_0_16_10 0.0))
(assert
 (>= l_0_16_11 0.0))
(assert
 (>= l_0_16_12 0.0))
(assert
 (= (+ (+ (- l_0_17_5) l_0_17_6) 1.0) 0.0))
(assert
 (let ((?x1435 (- (- (- (- (- _a_3_) l_0_17_10) l_0_17_11) l_0_17_12) l_0_17_13)))
 (let ((?x1440 (- (+ (- ?x1435 (* 1.0 l_0_17_7)) (* 1.0 l_0_17_8)) l_0_17_9)))
 (= (- ?x1440 1.0) 0.0))))
(assert
 (= (- (+ (- (- _a_4_) l_0_17_3) l_0_17_5) l_0_17_6) 0.0))
(assert
 (= (- (+ (- (- _a_5_) l_0_17_1) l_0_17_5) l_0_17_6) 0.0))
(assert
 (= (- (+ (- (- _a_6_) l_0_17_2) l_0_17_5) l_0_17_6) 0.0))
(assert
 (let ((?x1510 (- (- (+ (- (- _a_7_) l_0_17_4) l_0_17_5) l_0_17_6) l_0_17_8)))
 (= ?x1510 0.0)))
(assert
 (>= l_0_17_1 0.0))
(assert
 (>= l_0_17_2 0.0))
(assert
 (>= l_0_17_3 0.0))
(assert
 (>= l_0_17_4 0.0))
(assert
 (>= l_0_17_5 0.0))
(assert
 (>= l_0_17_6 0.0))
(assert
 (>= l_0_17_7 0.0))
(assert
 (>= l_0_17_8 0.0))
(assert
 (>= l_0_17_9 0.0))
(assert
 (>= l_0_17_10 0.0))
(assert
 (>= l_0_17_11 0.0))
(assert
 (>= l_0_17_12 0.0))
(assert
 (>= l_0_17_13 0.0))
(assert
 (let ((?x1539 (- (- (- (- (- _a_3_ l_0_18_10) l_0_18_11) l_0_18_12) l_0_18_13) l_0_18_14)))
 (let ((?x1544 (- (+ (- ?x1539 (* 1.0 l_0_18_7)) (* 1.0 l_0_18_8)) l_0_18_9)))
 (= (+ ?x1544 1.0) 0.0))))
(assert
 (= (- (+ (- _a_4_ l_0_18_3) l_0_18_5) l_0_18_6) 0.0))
(assert
 (= (- (+ (- _a_5_ l_0_18_1) l_0_18_5) l_0_18_6) 0.0))
(assert
 (= (- (+ (- _a_6_ l_0_18_2) l_0_18_5) l_0_18_6) 0.0))
(assert
 (= (- (- (+ (- _a_7_ l_0_18_4) l_0_18_5) l_0_18_6) l_0_18_8) 0.0))
(assert
 (= (- (+ (- l_0_18_5) l_0_18_6) 1.0) 0.0))
(assert
 (>= l_0_18_1 0.0))
(assert
 (>= l_0_18_2 0.0))
(assert
 (>= l_0_18_3 0.0))
(assert
 (>= l_0_18_4 0.0))
(assert
 (>= l_0_18_5 0.0))
(assert
 (>= l_0_18_6 0.0))
(assert
 (>= l_0_18_7 0.0))
(assert
 (>= l_0_18_8 0.0))
(assert
 (>= l_0_18_9 0.0))
(assert
 (>= l_0_18_10 0.0))
(assert
 (>= l_0_18_11 0.0))
(assert
 (>= l_0_18_12 0.0))
(assert
 (>= l_0_18_13 0.0))
(assert
 (>= l_0_18_14 0.0))
(assert
 (= (+ (- (+ (- l_0_19_1) l_0_19_5) l_0_19_6) 1.0) 0.0))
(assert
 (let ((?x1655 (+ (- (+ (* (- 1.0) l_0_19_7) (* 1.0 l_0_19_8)) l_0_19_9) 1.0)))
 (= ?x1655 0.0)))
(assert
 (= (- (- (+ (- l_0_19_2) l_0_19_5) l_0_19_6) l_0_19_8) 0.0))
(assert
 (= (- (+ (- l_0_19_3) l_0_19_5) l_0_19_6) 0.0))
(assert
 (= (- (+ (- l_0_19_4) l_0_19_5) l_0_19_6) 0.0))
(assert
 (= (+ (- l_0_19_5) l_0_19_6) 0.0))
(assert
 (>= l_0_19_1 0.0))
(assert
 (>= l_0_19_2 0.0))
(assert
 (>= l_0_19_3 0.0))
(assert
 (>= l_0_19_4 0.0))
(assert
 (>= l_0_19_5 0.0))
(assert
 (>= l_0_19_6 0.0))
(assert
 (>= l_0_19_7 0.0))
(assert
 (>= l_0_19_8 0.0))
(assert
 (>= l_0_19_9 0.0))
(assert
 (let ((?x1716 (- (+ (- (- l_0_20_10) (* 1.0 l_0_20_7)) (* 1.0 l_0_20_8)) l_0_20_9)))
 (= ?x1716 0.0)))
(assert
 (= (- (+ (- l_0_20_1) l_0_20_5) l_0_20_6) 0.0))
(assert
 (= (- (- (+ (- l_0_20_2) l_0_20_5) l_0_20_6) l_0_20_8) 0.0))
(assert
 (= (- (+ (- l_0_20_3) l_0_20_5) l_0_20_6) 0.0))
(assert
 (= (- (+ (- l_0_20_4) l_0_20_5) l_0_20_6) 0.0))
(assert
 (= (+ (- l_0_20_5) l_0_20_6) 0.0))
(assert
 (>= l_0_20_1 0.0))
(assert
 (>= l_0_20_2 0.0))
(assert
 (>= l_0_20_3 0.0))
(assert
 (>= l_0_20_4 0.0))
(assert
 (>= l_0_20_5 0.0))
(assert
 (>= l_0_20_6 0.0))
(assert
 (>= l_0_20_7 0.0))
(assert
 (>= l_0_20_8 0.0))
(assert
 (>= l_0_20_9 0.0))
(assert
 (>= l_0_20_10 0.0))
(assert
 (let ((?x1794 (+ (- (- (- l_0_21_10) l_0_21_11) (* 1.0 l_0_21_7)) (* 1.0 l_0_21_8))))
 (= (- ?x1794 l_0_21_9) 0.0)))
(assert
 (= (- (+ (- l_0_21_1) l_0_21_5) l_0_21_6) 0.0))
(assert
 (= (- (- (+ (- l_0_21_2) l_0_21_5) l_0_21_6) l_0_21_8) 0.0))
(assert
 (= (- (+ (- l_0_21_3) l_0_21_5) l_0_21_6) 0.0))
(assert
 (= (- (+ (- l_0_21_4) l_0_21_5) l_0_21_6) 0.0))
(assert
 (= (+ (- l_0_21_5) l_0_21_6) 0.0))
(assert
 (>= l_0_21_1 0.0))
(assert
 (>= l_0_21_2 0.0))
(assert
 (>= l_0_21_3 0.0))
(assert
 (>= l_0_21_4 0.0))
(assert
 (>= l_0_21_5 0.0))
(assert
 (>= l_0_21_6 0.0))
(assert
 (>= l_0_21_7 0.0))
(assert
 (>= l_0_21_8 0.0))
(assert
 (>= l_0_21_9 0.0))
(assert
 (>= l_0_21_10 0.0))
(assert
 (>= l_0_21_11 0.0))
(assert
 (let ((?x1875 (- (- (- (- _a_8_ l_0_22_10) l_0_22_11) l_0_22_12) (* 1.0 l_0_22_7))))
 (= (- (+ ?x1875 (* 1.0 l_0_22_8)) l_0_22_9) 0.0)))
(assert
 (= (- (+ (- _a_9_ l_0_22_3) l_0_22_5) l_0_22_6) 0.0))
(assert
 (= (- (+ (- _a_10_ l_0_22_1) l_0_22_5) l_0_22_6) 0.0))
(assert
 (= (- (- (+ (- _a_11_ l_0_22_2) l_0_22_5) l_0_22_6) l_0_22_8) 0.0))
(assert
 (= (- (+ (- _a_12_ l_0_22_4) l_0_22_5) l_0_22_6) 0.0))
(assert
 (= (+ (- l_0_22_5) l_0_22_6) 0.0))
(assert
 (>= l_0_22_1 0.0))
(assert
 (>= l_0_22_2 0.0))
(assert
 (>= l_0_22_3 0.0))
(assert
 (>= l_0_22_4 0.0))
(assert
 (>= l_0_22_5 0.0))
(assert
 (>= l_0_22_6 0.0))
(assert
 (>= l_0_22_7 0.0))
(assert
 (>= l_0_22_8 0.0))
(assert
 (>= l_0_22_9 0.0))
(assert
 (>= l_0_22_10 0.0))
(assert
 (>= l_0_22_11 0.0))
(assert
 (>= l_0_22_12 0.0))
(assert
 (= (+ (+ (- l_0_23_5) l_0_23_6) 1.0) 0.0))
(assert
 (let ((?x1971 (- (- (- (- (- _a_8_) l_0_23_10) l_0_23_11) l_0_23_12) l_0_23_13)))
 (let ((?x1976 (- (+ (- ?x1971 (* 1.0 l_0_23_7)) (* 1.0 l_0_23_8)) l_0_23_9)))
 (= (- ?x1976 1.0) 0.0))))
(assert
 (= (- (+ (- (- _a_9_) l_0_23_3) l_0_23_5) l_0_23_6) 0.0))
(assert
 (= (- (- (+ (- (- _a_10_) l_0_23_1) l_0_23_5) l_0_23_6) 1.0) 0.0))
(assert
 (let ((?x2036 (- (- (+ (- (- _a_11_) l_0_23_2) l_0_23_5) l_0_23_6) l_0_23_8)))
 (= ?x2036 0.0)))
(assert
 (= (- (+ (- (- _a_12_) l_0_23_4) l_0_23_5) l_0_23_6) 0.0))
(assert
 (>= l_0_23_1 0.0))
(assert
 (>= l_0_23_2 0.0))
(assert
 (>= l_0_23_3 0.0))
(assert
 (>= l_0_23_4 0.0))
(assert
 (>= l_0_23_5 0.0))
(assert
 (>= l_0_23_6 0.0))
(assert
 (>= l_0_23_7 0.0))
(assert
 (>= l_0_23_8 0.0))
(assert
 (>= l_0_23_9 0.0))
(assert
 (>= l_0_23_10 0.0))
(assert
 (>= l_0_23_11 0.0))
(assert
 (>= l_0_23_12 0.0))
(assert
 (>= l_0_23_13 0.0))
(assert
 (let ((?x2078 (- (- (- (- (- _a_8_ l_0_24_10) l_0_24_11) l_0_24_12) l_0_24_13) l_0_24_14)))
 (let ((?x2083 (- (+ (- ?x2078 (* 1.0 l_0_24_7)) (* 1.0 l_0_24_8)) l_0_24_9)))
 (= (+ ?x2083 1.0) 0.0))))
(assert
 (= (- (+ (- _a_9_ l_0_24_3) l_0_24_5) l_0_24_6) 0.0))
(assert
 (= (+ (- (+ (- _a_10_ l_0_24_1) l_0_24_5) l_0_24_6) 1.0) 0.0))
(assert
 (= (- (- (+ (- _a_11_ l_0_24_2) l_0_24_5) l_0_24_6) l_0_24_8) 0.0))
(assert
 (= (- (+ (- _a_12_ l_0_24_4) l_0_24_5) l_0_24_6) 0.0))
(assert
 (= (- (+ (- l_0_24_5) l_0_24_6) 1.0) 0.0))
(assert
 (>= l_0_24_1 0.0))
(assert
 (>= l_0_24_2 0.0))
(assert
 (>= l_0_24_3 0.0))
(assert
 (>= l_0_24_4 0.0))
(assert
 (>= l_0_24_5 0.0))
(assert
 (>= l_0_24_6 0.0))
(assert
 (>= l_0_24_7 0.0))
(assert
 (>= l_0_24_8 0.0))
(assert
 (>= l_0_24_9 0.0))
(assert
 (>= l_0_24_10 0.0))
(assert
 (>= l_0_24_11 0.0))
(assert
 (>= l_0_24_12 0.0))
(assert
 (>= l_0_24_13 0.0))
(assert
 (>= l_0_24_14 0.0))
(assert
 (= (+ (- (+ (- l_0_25_1) l_0_25_5) l_0_25_6) 1.0) 0.0))
(assert
 (let ((?x2195 (+ (- (+ (* (- 1.0) l_0_25_7) (* 1.0 l_0_25_8)) l_0_25_9) 1.0)))
 (= ?x2195 0.0)))
(assert
 (= (- (+ (- l_0_25_2) l_0_25_5) l_0_25_6) 0.0))
(assert
 (= (- (- (+ (- l_0_25_3) l_0_25_5) l_0_25_6) l_0_25_8) 0.0))
(assert
 (= (- (+ (- l_0_25_4) l_0_25_5) l_0_25_6) 0.0))
(assert
 (= (+ (- l_0_25_5) l_0_25_6) 0.0))
(assert
 (>= l_0_25_1 0.0))
(assert
 (>= l_0_25_2 0.0))
(assert
 (>= l_0_25_3 0.0))
(assert
 (>= l_0_25_4 0.0))
(assert
 (>= l_0_25_5 0.0))
(assert
 (>= l_0_25_6 0.0))
(assert
 (>= l_0_25_7 0.0))
(assert
 (>= l_0_25_8 0.0))
(assert
 (>= l_0_25_9 0.0))
(assert
 (let ((?x2256 (- (+ (- (- l_0_26_10) (* 1.0 l_0_26_7)) (* 1.0 l_0_26_8)) l_0_26_9)))
 (= ?x2256 0.0)))
(assert
 (= (- (+ (- l_0_26_1) l_0_26_5) l_0_26_6) 0.0))
(assert
 (= (- (+ (- l_0_26_2) l_0_26_5) l_0_26_6) 0.0))
(assert
 (= (- (- (+ (- l_0_26_3) l_0_26_5) l_0_26_6) l_0_26_8) 0.0))
(assert
 (= (- (+ (- l_0_26_4) l_0_26_5) l_0_26_6) 0.0))
(assert
 (= (+ (- l_0_26_5) l_0_26_6) 0.0))
(assert
 (>= l_0_26_1 0.0))
(assert
 (>= l_0_26_2 0.0))
(assert
 (>= l_0_26_3 0.0))
(assert
 (>= l_0_26_4 0.0))
(assert
 (>= l_0_26_5 0.0))
(assert
 (>= l_0_26_6 0.0))
(assert
 (>= l_0_26_7 0.0))
(assert
 (>= l_0_26_8 0.0))
(assert
 (>= l_0_26_9 0.0))
(assert
 (>= l_0_26_10 0.0))
(assert
 (let ((?x2334 (+ (- (- (- l_0_27_10) l_0_27_11) (* 1.0 l_0_27_7)) (* 1.0 l_0_27_8))))
 (= (- ?x2334 l_0_27_9) 0.0)))
(assert
 (= (- (+ (- l_0_27_1) l_0_27_5) l_0_27_6) 0.0))
(assert
 (= (- (+ (- l_0_27_2) l_0_27_5) l_0_27_6) 0.0))
(assert
 (= (- (- (+ (- l_0_27_3) l_0_27_5) l_0_27_6) l_0_27_8) 0.0))
(assert
 (= (- (+ (- l_0_27_4) l_0_27_5) l_0_27_6) 0.0))
(assert
 (= (+ (- l_0_27_5) l_0_27_6) 0.0))
(assert
 (>= l_0_27_1 0.0))
(assert
 (>= l_0_27_2 0.0))
(assert
 (>= l_0_27_3 0.0))
(assert
 (>= l_0_27_4 0.0))
(assert
 (>= l_0_27_5 0.0))
(assert
 (>= l_0_27_6 0.0))
(assert
 (>= l_0_27_7 0.0))
(assert
 (>= l_0_27_8 0.0))
(assert
 (>= l_0_27_9 0.0))
(assert
 (>= l_0_27_10 0.0))
(assert
 (>= l_0_27_11 0.0))
(assert
 (let ((?x2415 (- (- (- (- _a_13_ l_0_28_10) l_0_28_11) l_0_28_12) (* 1.0 l_0_28_7))))
 (= (- (+ ?x2415 (* 1.0 l_0_28_8)) l_0_28_9) 0.0)))
(assert
 (= (- (- (+ (- _a_14_ l_0_28_3) l_0_28_5) l_0_28_6) l_0_28_8) 0.0))
(assert
 (= (- (+ (- _a_15_ l_0_28_1) l_0_28_5) l_0_28_6) 0.0))
(assert
 (= (- (+ (- _a_16_ l_0_28_2) l_0_28_5) l_0_28_6) 0.0))
(assert
 (= (- (+ (- _a_17_ l_0_28_4) l_0_28_5) l_0_28_6) 0.0))
(assert
 (= (+ (- l_0_28_5) l_0_28_6) 0.0))
(assert
 (>= l_0_28_1 0.0))
(assert
 (>= l_0_28_2 0.0))
(assert
 (>= l_0_28_3 0.0))
(assert
 (>= l_0_28_4 0.0))
(assert
 (>= l_0_28_5 0.0))
(assert
 (>= l_0_28_6 0.0))
(assert
 (>= l_0_28_7 0.0))
(assert
 (>= l_0_28_8 0.0))
(assert
 (>= l_0_28_9 0.0))
(assert
 (>= l_0_28_10 0.0))
(assert
 (>= l_0_28_11 0.0))
(assert
 (>= l_0_28_12 0.0))
(assert
 (= (+ (+ (- l_0_29_5) l_0_29_6) 1.0) 0.0))
(assert
 (let ((?x2511 (- (- (- (- (- _a_13_) l_0_29_10) l_0_29_11) l_0_29_12) l_0_29_13)))
 (let ((?x2516 (- (+ (- ?x2511 (* 1.0 l_0_29_7)) (* 1.0 l_0_29_8)) l_0_29_9)))
 (= (- ?x2516 1.0) 0.0))))
(assert
 (let ((?x2547 (- (- (+ (- (- _a_14_) l_0_29_3) l_0_29_5) l_0_29_6) l_0_29_8)))
 (= ?x2547 0.0)))
(assert
 (= (- (- (+ (- (- _a_15_) l_0_29_1) l_0_29_5) l_0_29_6) 1.0) 0.0))
(assert
 (= (- (+ (- (- _a_16_) l_0_29_2) l_0_29_5) l_0_29_6) 0.0))
(assert
 (= (- (+ (- (- _a_17_) l_0_29_4) l_0_29_5) l_0_29_6) 0.0))
(assert
 (>= l_0_29_1 0.0))
(assert
 (>= l_0_29_2 0.0))
(assert
 (>= l_0_29_3 0.0))
(assert
 (>= l_0_29_4 0.0))
(assert
 (>= l_0_29_5 0.0))
(assert
 (>= l_0_29_6 0.0))
(assert
 (>= l_0_29_7 0.0))
(assert
 (>= l_0_29_8 0.0))
(assert
 (>= l_0_29_9 0.0))
(assert
 (>= l_0_29_10 0.0))
(assert
 (>= l_0_29_11 0.0))
(assert
 (>= l_0_29_12 0.0))
(assert
 (>= l_0_29_13 0.0))
(assert
 (let ((?x2617 (- (- (- (- _a_13_ l_0_30_10) l_0_30_11) l_0_30_12) l_0_30_13)))
 (let ((?x2622 (+ (- (- ?x2617 l_0_30_14) (* 1.0 l_0_30_7)) (* 1.0 l_0_30_8))))
 (= (+ (- ?x2622 l_0_30_9) 1.0) 0.0))))
(assert
 (= (- (- (+ (- _a_14_ l_0_30_3) l_0_30_5) l_0_30_6) l_0_30_8) 0.0))
(assert
 (= (+ (- (+ (- _a_15_ l_0_30_1) l_0_30_5) l_0_30_6) 1.0) 0.0))
(assert
 (= (- (+ (- _a_16_ l_0_30_2) l_0_30_5) l_0_30_6) 0.0))
(assert
 (= (- (+ (- _a_17_ l_0_30_4) l_0_30_5) l_0_30_6) 0.0))
(assert
 (= (- (+ (- l_0_30_5) l_0_30_6) 1.0) 0.0))
(assert
 (>= l_0_30_1 0.0))
(assert
 (>= l_0_30_2 0.0))
(assert
 (>= l_0_30_3 0.0))
(assert
 (>= l_0_30_4 0.0))
(assert
 (>= l_0_30_5 0.0))
(assert
 (>= l_0_30_6 0.0))
(assert
 (>= l_0_30_7 0.0))
(assert
 (>= l_0_30_8 0.0))
(assert
 (>= l_0_30_9 0.0))
(assert
 (>= l_0_30_10 0.0))
(assert
 (>= l_0_30_11 0.0))
(assert
 (>= l_0_30_12 0.0))
(assert
 (>= l_0_30_13 0.0))
(assert
 (>= l_0_30_14 0.0))
(check-sat)
(get-model)